63 200 190 22 129 106 135 34 141 
131 156 133 40 119 150 194 79 73 93 19 175 
177 108 85 144 87 137 13 8 2 96 185 146 
24 153 173 112 109 189 192 50 55 107 158 39 83 
89 154 
15 78 187 122 126 193 64 67 
100 199 118 191 69 113 41 17 60 148 
142 167 152 29 86 74 121 82 66 97 75 
140 12 37 59 99 151 91 116 76 120 36 
149 181 5 26 10 77 186 115 11 1 30 
9 38 128 32 23 52 101 81 70 157 
4 54 155 65 160 125 80 178 
47 103 3 180 136 110 95 44 90 33 
182 169 124 43 183 27 51 198 145 174 
28 6 49 14 197 104 25 138 123 
127 84 88 176 166 71 
92 179 7 68 196 161 72 
147 57 195 16 98 188 139 21 
45 165 56 31 117 114 
163 48 102 18 184 58 134 
42 172 132 171 
170 164 159 20 46 
162 35 130 
143 168 53 
111 
61 
94 
62 
105 

